
Value of objective function: 2.70886309

Actual values of the variables:
pL1_div_from_law          2.70886
comp_pos0                0.382367
comp_neg0                       0
comp_pos1                0.377259
comp_neg1                       0
comp_pos2                0.240905
comp_neg2                       0
comp_pos3                 0.21494
comp_neg3                       0
comp_pos4                0.218228
comp_neg4                       0
comp_pos5               0.0491072
comp_neg5                       0
comp_pos6                0.482966
comp_neg6                       0
comp_pos7                0.289725
comp_neg7                       0
comp_pos8                0.212061
comp_neg8                       0
comp_pos9               0.0796011
comp_neg9                       0
comp_pos10               0.137526
comp_neg10                      0
comp_pos11                      0
comp_neg11                      0
comp_pos12                      0
comp_neg12                      0
comp_pos13              0.0241774
comp_neg13                      0
z_c0_t0               1.32138e+10
p0_c0_t0              3.17186e+09
p1_c0_t0              1.05272e+08
p2_c0_t0              1.46044e+10
p3_c0_t0              3.84867e+08
diff0                 5.05253e+09
normdiff0                0.382367
z_c0_t1               1.47752e+10
p0_c0_t1              2.72861e+09
p1_c0_t1              1.16885e+08
p2_c0_t1              1.70202e+10
p3_c0_t1               4.8353e+08
diff1                 5.57408e+09
normdiff1                0.377259
z_c1_t0               1.65566e+10
p0_c1_t0              3.20697e+09
p1_c1_t0              1.35265e+08
p2_c1_t0              1.70343e+10
p3_c1_t0              1.68652e+08
diff2                 3.98857e+09
normdiff2                0.240905
z_c1_t1               1.94959e+10
p0_c1_t1              3.19967e+09
p1_c1_t1              1.90527e+08
p2_c1_t1              2.01234e+10
p3_c1_t1              1.72728e+08
diff3                 4.19045e+09
normdiff3                 0.21494
z_c2_t0               7.24754e+09
p0_c2_t0              1.09418e+09
p1_c2_t0              5.51971e+07
p2_c2_t0              7.53069e+09
p3_c2_t0              1.49085e+08
diff4                 1.58162e+09
normdiff4                0.218228
z_c2_t1               7.97123e+09
p0_c2_t1              8.79368e+08
p1_c2_t1              6.38795e+07
p2_c2_t1              7.30234e+09
p3_c2_t1              1.17087e+08
diff5                 3.91445e+08
normdiff5               0.0491072
z_c3_t0               1.22612e+10
p0_c3_t0              1.97964e+09
p1_c3_t0              9.43659e+07
p2_c3_t0              1.54781e+10
p3_c3_t0              6.30829e+08
diff6                 5.92173e+09
normdiff6                0.482966
z_c3_t1               1.42798e+10
p0_c3_t1              2.21677e+09
p1_c3_t1              9.56852e+07
p2_c3_t1              1.55992e+10
p3_c3_t1              5.05307e+08
diff7                 4.13721e+09
normdiff7                0.289725
z_c4_t0               7.97197e+09
p0_c4_t0              8.73764e+08
p1_c4_t0              1.05596e+08
p2_c4_t0              8.56347e+09
p3_c4_t0              1.19689e+08
diff8                 1.69055e+09
normdiff8                0.212061
z_c4_t1                8.9819e+09
p0_c4_t1              8.94474e+08
p1_c4_t1              9.62536e+07
p2_c4_t1              8.62622e+09
p3_c4_t1              7.99258e+07
diff9                 7.14969e+08
normdiff9               0.0796011
z_c5_t0               1.00642e+10
p0_c5_t0              1.54085e+09
p1_c5_t0              8.82169e+07
p2_c5_t0              9.76885e+09
p3_c5_t0              5.03208e+07
diff10                1.38408e+09
normdiff10               0.137526
z_c5_t1                1.2016e+10
p0_c5_t1              1.12556e+09
p1_c5_t1              8.82549e+07
p2_c5_t1              1.06693e+10
p3_c5_t1               1.3286e+08
diff11                          0
normdiff11                      0
z_c6_t0               1.81204e+10
p0_c6_t0              2.81347e+09
p1_c6_t0              1.12562e+08
p2_c6_t0              1.50301e+10
p3_c6_t0              1.64267e+08
diff12                          0
normdiff12                      0
z_c6_t1               2.06345e+10
p0_c6_t1              2.99499e+09
p1_c6_t1              1.03172e+08
p2_c6_t1              1.79224e+10
p3_c6_t1               1.1285e+08
diff13                4.98888e+08
normdiff13              0.0241774
